problems/VanDerWaerdenNumbers/VanDerWaerden-models/noch/O2/lingeling/model_2-k3l4n37-solution000001.solution
language Essence 1.3

letting p be
        partition({1, 2, 3, 6, 7, 8, 12, 14, 15, 24, 25, 27, 29, 30, 32, 34, 35, 37}, {4, 5, 16, 19, 20, 21, 28, 31},
                  {9, 10, 11, 13, 17, 18, 22, 23, 26, 33, 36})
